model.sol
# Objective value = 0.75
x_0 7
x_1 0.75
alpha_0 -1
alpha_1 1
alpha_2 -1
